unsat
(define-fun f ((x (_ BitVec 64))) (_ BitVec 64) (let ((_let_1 (shesh (arba (ehad x))))) (let ((_let_2 (arba x))) (im (bvand #b0000000000000000000000000000000000000000000000000000000000000001 (bvand x _let_2)) (shesh (arba (ehad (bvadd #b0000000000000000000000000000000000000000000000000000000000000001 x)))) (im (bvand x #b0000000000000000000000000000000000000000000000000000000000001101) (im (shesh (arba (bvnot x))) #b0000000000000000000000000000000000000000000000000000000000000000 _let_1) (im (bvand x #b0000000000000000000000000000000000000000000000000000000000010011) (im (bvand #b0000000000000000000000000000000000000000000000000000000000000001 (arba _let_2)) #b0000000000000000000000000000000000000000000000000000000000000000 _let_1) #b0000000000000000000000000000000000000000000000000000000000000000))))))
1.29user 0.02system 0:01.36elapsed 96%CPU (0avgtext+0avgdata 48052maxresident)k
1144inputs+8outputs (5major+6700minor)pagefaults 0swaps
